3 
4 
5  08 24 39 54 
6  10 20 25 30 35 40 45 50 55 
7  00 05 10 15 20 25 30 35 40 45 50 55 
8  00 05 10 15 20 25 30 35 40 45 50 55 
9  00 05 10 15 20 25 30 35 41 47 55 
10  02 10 17 25 32 40 47 55 
11  02 10 17 25 32 40 47 55 
12  02 10 17 25 32 40 47 55 
13  02 10 17 24 32 40 47 55 
14  02 10 17 24 32 40 47 55 
15  00 05 09 15 20 25 30 35 39 45 50 54 
16  00 05 09 15 20 24 30 35 39 45 50 54 
17  00 05 09 15 20 24 30 35 39 45 50 55 
18  00 05 10 15 20 25 30 35 40 45 51 57 
19  03 10 17 25 32 40 47 55 
20  01 08 16 24 31 42 57 
21  04 12 27 42 57 
22  07 22 37 53 
23  08 
0 
